76 1267
2 4 8 10 11 14 16 19 25 34 35 36 38 39 41 42 43 44 45 46 48 49 51 53 56 58 59 62 64 65 66 68 71 73
3 5 6 9 15 16 17 22 26 28 30 31 33 36 39 40 42 43 44 49 53 54 55 58 59 60 63 64 70 72 74 75
0 10 11 13 14 15 17 24 27 30 31 33 35 38 41 42 47 48 55 56 58 63 67 70 72 73
1 5 10 11 12 13 15 16 21 24 25 27 28 31 32 38 46 49 57 59 60 61 62 63 64 70 73 74
0 6 12 13 14 15 17 19 20 26 28 30 33 37 39 43 49 50 54 56 57 63 65 66 70 74
1 3 9 13 16 17 18 19 21 26 29 30 31 32 33 36 37 38 41 46 52 56 57 58 59 60 62 63 64 66 67 68 71 72 74 75
1 4 8 9 12 16 17 19 20 21 22 25 29 30 31 34 36 38 40 46 49 50 52 53 54 59 60 61 64 69 71 74 75
9 12 13 14 15 16 17 19 20 23 26 27 29 33 35 37 38 39 40 41 42 49 50 54 55 59 61 66 68 69 70
0 6 9 14 15 19 21 22 24 26 28 33 35 36 43 44 45 52 54 60 63 64 70 72 73
1 5 6 7 8 11 12 14 15 16 17 22 24 25 27 28 30 35 37 40 42 44 48 49 53 55 56 57 58 59 63 64 65 67 74
0 2 3 12 16 17 19 20 21 22 23 25 26 28 29 30 35 36 38 40 45 46 50 51 52 53 54 57 59 62 67 68 69 70 71 73
0 2 3 9 12 13 15 16 17 21 22 24 25 26 29 32 34 37 38 40 44 45 46 47 48 49 51 52 53 55 56 61 62 63 64 65 66 70 71 74
3 4 6 7 9 10 11 19 20 26 28 29 30 32 33 40 46 47 49 59 61 64 65 69 70 71 73 74 75
2 3 4 5 7 11 14 15 19 21 23 28 30 31 33 34 35 38 39 41 42 44 45 46 47 48 51 52 59 61 64 69 72 73 74 75
0 2 4 7 8 9 13 15 17 19 22 23 24 26 27 29 31 38 39 40 41 42 43 44 45 46 47 48 50 52 53 54 55 56 59 61 66 67 71 74 75
1 2 3 4 7 8 9 11 13 14 17 19 25 35 36 38 42 43 46 48 50 54 55 58 59 60 65 66 68 71 75
0 1 3 5 6 7 9 10 11 17 18 19 20 22 28 29 31 32 33 34 35 37 38 43 51 58 68 71 72 73
1 2 4 5 6 7 9 10 11 14 15 16 21 23 25 27 28 30 32 34 39 44 45 46 47 50 53 54 61 63 71 72
5 16 19 20 24 27 30 34 41 42 44 47 48 49 53 57 59 60 67 69 71 72
0 4 5 6 7 8 10 12 13 14 15 16 18 21 25 27 28 30 32 34 36 37 38 40 41 42 43 44 46 48 49 53 57 58 59 60 61 63 64 65 66 67 68 73 75
4 6 7 10 12 16 18 21 22 24 29 30 31 33 35 36 38 41 43 44 46 47 49 50 54 58 64 65 67 68 69 71 72 75
3 5 6 8 10 11 13 17 19 20 24 25 28 29 33 35 36 42 44 45 48 49 50 52 53 54 55 59 62 65 67 69 75
1 6 8 9 10 11 14 16 20 25 27 29 30 31 34 35 36 40 41 42 43 44 45 47 49 51 53 54 55 56 60 61 63 65 66 67 69 70 71 74 75
7 10 13 14 17 24 25 26 28 32 33 36 37 47 52 56 57 59 62 64 65 68 69 70 71 74
2 3 8 9 11 14 18 20 21 23 28 37 38 43 44 45 46 47 49 50 51 52 53 58 60 61 65 68 70 72 75
0 3 6 9 10 11 15 17 19 21 22 23 26 27 28 31 33 35 38 42 43 45 48 49 51 52 53 62 64 65 67 68 69 70 71 72
1 4 5 7 8 10 11 12 14 23 25 31 34 35 36 39 40 41 49 51 52 58 59 62 65 67 70 71 72 73 75
2 3 7 9 14 17 18 19 22 25 28 29 30 31 33 34 38 40 42 43 45 48 49 52 53 55 56 57 58 59 61 65 70 71 73 74 75
1 3 4 8 9 10 12 13 16 17 19 21 23 24 25 27 30 32 34 37 38 40 43 44 48 52 53 55 57 61 62 64 65 68 69 70 71 74 75
5 6 7 10 11 12 14 16 20 21 22 27 31 35 38 41 43 44 45 46 48 50 53 54 55 56 60 61 63 64 67 68 70 71 75
1 2 4 5 6 9 10 12 13 17 18 19 20 22 27 28 31 32 36 37 40 41 42 43 46 47 49 51 52 54 56 57 58 59 61 63 64 69 70 73
1 2 3 5 6 13 14 16 20 22 25 26 27 29 30 33 34 35 36 39 40 41 43 45 48 53 54 55 56 58 66 74 75
3 5 11 12 16 17 19 23 28 30 33 35 39 41 43 44 47 49 52 54 57 58 64 65 68 69
1 2 4 5 7 8 12 13 16 20 21 23 25 27 31 32 34 43 44 46 47 48 51 53 56 57 59 65 66 70 71 73 75
0 6 11 13 16 17 18 19 22 26 27 28 31 33 36 38 39 40 44 45 46 48 50 51 52 53 59 61 63 65 66 69 70 73 74
0 2 7 8 9 10 13 15 16 20 21 22 25 26 29 31 32 37 39 40 41 43 44 45 47 50 51 52 61 62 68 69 70 72 74 75
0 1 5 6 8 10 15 19 20 21 22 23 26 30 31 34 37 38 43 44 49 50 52 55 57 58 61 62 63 64 65 66 67 69 71 72 73 74
4 5 7 9 11 16 19 23 24 28 30 35 36 38 40 41 44 45 46 47 52 59 60 62 68 69 73 75
0 2 3 5 6 7 10 11 13 14 15 16 19 20 24 25 27 28 29 34 36 37 39 43 49 52 53 56 57 59 60 62 64 66 67 69 70 72 73 74
0 1 4 7 13 14 17 26 31 32 34 35 38 41 44 45 49 50 51 52 55 57 58 62 68 69 73 75
1 6 7 9 10 11 12 14 19 22 26 27 28 30 31 34 35 37 47 52 54 56 58 59 61 63 71 72 75
0 2 5 7 13 14 18 19 20 22 26 29 30 31 32 35 37 39 44 45 46 51 53 54 56 58 59 60 61 62 63 66 68 69 71 73 75
0 1 2 7 9 13 14 15 18 19 21 22 25 27 30 43 44 45 46 49 50 55 58 61 62 64 65 66 67 68 69 72 74 75
0 1 4 8 14 15 16 19 20 22 24 25 27 28 29 30 31 32 33 35 36 38 42 44 46 47 51 54 55 56 60 63 65 67 71 74 75
0 1 8 9 11 13 14 17 18 19 20 21 22 24 28 29 32 33 34 35 36 37 39 41 42 43 45 46 47 51 54 60 61 63 74 75
0 8 10 11 13 14 17 21 22 24 25 27 29 31 34 35 37 39 41 42 44 46 50 53 57 62 64 70 74
0 3 5 6 10 11 12 13 14 15 17 19 20 24 29 30 33 34 37 41 42 43 44 45 51 52 53 54 55 60 61 63 64 65 66 67 70 71 73 75
2 11 12 13 14 17 18 20 22 23 24 30 32 33 35 37 40 43 44 52 55 58 62 65 66 67 71
0 2 9 11 13 14 15 18 19 21 25 27 28 29 31 33 34 52 53 54 55 59 61 62 67 73 74
0 1 3 4 6 7 9 11 12 18 19 20 21 22 24 25 26 27 30 32 36 38 39 42 52 55 56 57 60 61 63 65 66 68 74
4 6 7 10 14 15 17 20 21 24 29 34 35 36 39 42 45 53 55 56 58 59 60 63 64 66 68 69 70 73 75
0 10 11 13 16 22 24 25 26 30 33 34 35 39 41 43 44 46 52 56 57 63 65 66 67 72 74
5 6 8 10 11 13 14 21 23 24 25 26 27 28 30 32 34 35 36 37 38 39 40 46 47 48 49 51 55 58 61 62 64 65 67 73 74
0 1 6 9 10 11 14 17 18 19 21 22 24 25 27 28 29 31 33 34 38 41 45 46 48 50 55 56 59 61 64 65 66 69 70 74
1 4 6 7 8 10 14 15 17 20 21 22 29 30 31 32 40 41 43 44 46 48 58 60 61 62 65 66 67 69 70 72 73 74 75
1 2 7 9 11 14 15 21 22 27 28 29 31 36 39 42 43 46 47 48 49 50 52 53 56 58 61 62 64 65 67 70 71 72 73
0 2 4 5 9 11 14 22 23 27 29 30 31 33 38 40 41 43 49 50 51 53 55 60 65 67 69 70 74 75
3 4 5 9 10 18 19 23 27 28 30 32 33 36 38 39 45 49 51 59 60 61 62 64 65 66 67 68 70 71 74
0 1 2 5 9 15 16 19 20 24 26 27 30 31 32 36 39 40 41 42 47 50 52 54 55 60 62 64 65 66 67 69 71 72 75
0 1 3 5 6 7 9 10 12 13 14 15 18 19 21 23 26 27 30 33 34 37 38 40 41 48 50 53 57 60 61 62 63 64 66 70 71 72 73 75
1 3 5 6 8 15 18 19 22 24 29 37 38 41 43 44 46 49 50 54 56 57 58 59 61 63 65 68 69 73 75
3 6 7 11 12 13 14 17 19 22 24 27 28 29 30 34 35 36 40 41 42 44 46 48 49 52 53 54 55 57 59 60 62 65 67 69
0 3 5 10 11 21 23 25 26 28 35 36 37 38 39 41 42 45 47 48 52 54 55 57 58 59 61 63 66 67 69 70 72 73 74
1 2 3 4 5 8 9 11 17 19 22 29 30 34 36 40 41 43 44 46 49 50 51 59 60 62 66 69 70 72 74
0 1 3 5 6 8 9 11 12 13 19 20 23 25 28 29 30 32 36 38 42 45 46 50 52 53 55 57 58 59 65 67 68 72
0 4 9 11 12 15 19 20 21 22 23 24 25 26 27 28 32 33 34 36 42 43 46 47 49 51 52 53 54 55 56 57 58 60 61 64 66 67 70 71
0 4 5 7 11 14 15 19 22 31 33 34 36 38 41 42 46 47 49 50 51 53 54 57 58 59 62 63 65 69 72 74
2 5 9 10 14 18 19 20 21 22 25 26 29 36 38 42 43 46 47 48 51 52 54 55 56 57 58 61 62 64 65 68 71
0 5 7 10 15 16 19 20 23 24 25 28 29 32 35 37 39 41 42 49 50 57 60 64 67 69 73 75
6 7 10 12 13 18 20 21 22 23 25 28 30 32 34 35 36 37 38 39 41 42 50 53 54 56 58 60 61 62 63 66 68 72
1 2 3 4 7 8 10 11 12 22 23 24 25 26 27 28 29 30 33 34 35 38 45 46 50 53 54 55 56 57 59 62 63 65 72 74 75
0 5 6 10 11 12 14 15 16 17 18 20 22 23 25 26 27 28 29 33 36 40 41 43 46 47 55 57 58 59 65 67 72 73
1 2 5 8 13 16 17 18 20 24 25 26 35 36 38 40 42 51 54 55 58 59 62 63 64 66 69 70 71 74
0 2 3 8 10 12 13 16 19 26 27 30 33 34 36 37 38 39 41 46 48 50 52 54 55 59 60 62 68 71
1 3 4 5 6 9 11 12 13 14 22 23 27 28 31 34 35 36 38 42 43 44 45 48 49 51 52 53 54 56 57 62 63 66 70 72 75
1 5 6 12 13 14 15 19 20 21 22 24 26 27 28 29 31 33 35 37 39 40 41 42 43 44 46 50 54 56 58 59 60 68 70 74
